n = 15;
m = 45;

max_len = 7;
word_lens = [ 4, 4, 4, 4, 4, 4, 4, 4, 4, 4, 4, 5, 5, 5, 5, 5, 5, 5, 5, 5, 5, 5, 6, 6, 6, 6, 6, 6, 6, 6, 6, 6, 6, 6, 6, 6, 7, 7, 7, 7, 7, 7, 7, 7, 7 ];
words = [| M, I, T, E, E, E, E | A, S, I, A, E, E, E | H, O, A, X, E, E, E | B, O, O, K, E, E, E | H, O, B, O, E, E, E | G, O, A, T, E, E, E | T, A, P, E, E, E, E | C, U, L, T, E, E, E | Y, E, T, I, E, E, E | X, E, N, A, E, E, E | W, A, G, S, E, E, E | S, H, R, U, B, E, E | C, L, A, M, S, E, E | G, R, A, I, L, E, E | B, L, U, R, B, E, E | M, A, N, G, E, E, E | T, E, X, A, S, E, E | L, U, M, M, I, E, E | M, A, I, N, E, E, E | V, E, R, S, O, E, E | A, L, B, U, M, E, E | G, O, M, P, A, E, E | C, O, Y, O, T, E, E | R, E, A, D, E, R, E | F, R, E, A, K, S, E | S, A, L, M, O, N, E | C, A, N, A, D, A, E | R, O, D, E, N, T, E | G, A, R, U, D, A, E | L, E, D, G, E, R, E | R, E, C, O, R, D, E | L, E, G, E, N, D, E | S, C, O, O, B, Y, E | S, I, K, K, I, M, E | N, E, S, S, I, E, E | S, I, M, I, A, N, E | U, F, O, L, O, G, Y | S, P, E, C, I, E, S | C, R, Y, P, T, I, D | C, A, N, I, D, A, E | T, E, X, T, U, A, L | C, Y, B, R, A, R, Y | G, O, R, I, L, L, A | P, R, I, M, A, T, E | N, O, V, E, L, L, A |];

pos_var_strat = first_fail;
pos_val_strat = indomain_median;
